datasets/15l3i.nl
g3 3 1 0	# problem 15l3i
 174 69 1 0 48	# vars, constraints, objectives, ranges, eqns
 0 1	# nonlinear constraints, objectives
 0 0	# network constraints: nonlinear, linear
 0 72 0	# nonlinear vars in constraints, objectives, both
 0 0 0 1	# linear network variables; functions; arith, flags
 0 102 0 0 72	# discrete variables: binary, integer, nonlinear (b,c,o)
 672 162	# nonzeros in Jacobian, gradients
 0 0	# max name lengths: constraints, variables
 0 0 0 0 0	# common exprs: b,c,o,c1,o1
b
2 0
2 0
2 0
2 0
2 0
2 0
2 0
2 0
2 0
2 0
2 0
2 0
2 0
2 0
2 0
2 0
2 0
2 0
2 0
2 0
2 0
2 0
2 0
2 0
2 0
2 0
2 0
2 0
2 0
2 0
2 0
2 0
2 0
2 0
2 0
2 0
2 0
2 0
2 0
2 0
2 0
2 0
2 0
2 0
2 0
2 0
2 0
2 0
2 0
2 0
2 0
2 0
2 0
2 0
2 0
2 0
2 0
2 0
2 0
2 0
2 0
2 0
2 0
2 0
2 0
2 0
2 0
2 0
2 0
2 0
2 0
2 0
0 0 70
0 0 40
0 0 130
0 0 70
0 0 40
0 0 130
0 0 70
0 0 40
0 0 130
0 0 70
0 0 40
0 0 130
0 0 70
0 0 40
0 0 130
0 0 70
0 0 40
0 0 130
0 0 40
0 0 80
0 0 70
0 0 40
0 0 80
0 0 70
0 0 40
0 0 80
0 0 70
0 0 40
0 0 80
0 0 70
0 0 40
0 0 80
0 0 70
0 0 40
0 0 80
0 0 70
0 0 40
0 0 80
0 0 80
0 0 40
0 0 80
0 0 80
0 0 40
0 0 80
0 0 80
0 0 40
0 0 80
0 0 80
0 0 40
0 0 80
0 0 80
0 0 40
0 0 80
0 0 80
0 0 50
0 0 100
0 0 100
0 0 50
0 0 100
0 0 100
0 0 50
0 0 100
0 0 100
0 0 50
0 0 100
0 0 100
0 0 50
0 0 100
0 0 100
0 0 50
0 0 100
0 0 100
0 0 200
0 0 100
0 0 20
0 0 200
0 0 100
0 0 20
0 0 200
0 0 100
0 0 20
0 0 200
0 0 100
0 0 20
0 0 200
0 0 100
0 0 20
0 0 200
0 0 100
0 0 20
0 0 100
0 0 90
0 0 90
0 0 100
0 0 80
0 0 100
0 0 80
0 0 100
0 0 100
0 0 100
0 0 100
0 0 100
r
4 70
4 40
4 130
4 40
4 80
4 70
4 40
4 80
4 80
4 50
4 100
4 100
4 200
4 100
4 20
4 0
4 0
4 0
4 0
4 0
4 0
4 0
4 0
4 0
4 0
4 0
4 0
4 0
4 0
4 0
4 0
4 0
4 0
4 -140
4 -90
4 -90
4 -100
4 -80
4 -140
4 -80
4 -130
4 -130
4 -180
4 -200
4 -140
4 100
4 100
4 100
1 237
1 256
1 243
1 274
1 264
1 378
1 320
1 320
1 340
1 520
1 240
1 190
1 200
1 250
1 320
1 237
1 256
1 243
1 274
1 264
1 378
C0
n0
C1
n0
C2
n0
C3
n0
C4
n0
C5
n0
C6
n0
C7
n0
C8
n0
C9
n0
C10
n0
C11
n0
C12
n0
C13
n0
C14
n0
C15
n0
C16
n0
C17
n0
C18
n0
C19
n0
C20
n0
C21
n0
C22
n0
C23
n0
C24
n0
C25
n0
C26
n0
C27
n0
C28
n0
C29
n0
C30
n0
C31
n0
C32
n0
C33
n0
C34
n0
C35
n0
C36
n0
C37
n0
C38
n0
C39
n0
C40
n0
C41
n0
C42
n0
C43
n0
C44
n0
C45
n0
C46
n0
C47
n0
C48
n0
C49
n0
C50
n0
C51
n0
C52
n0
C53
n0
C54
n0
C55
n0
C56
n0
C57
n0
C58
n0
C59
n0
C60
n0
C61
n0
C62
n0
C63
n0
C64
n0
C65
n0
C66
n0
C67
n0
C68
n0
O0 0
o54
12
o2
n10000
o5
o16
o3
o54
6
v0
v12
v24
v36
v48
v60
n-140
n2
o2
n10000
o5
o16
o3
o54
6
v1
v13
v25
v37
v49
v61
n-90
n2
o2
n10000
o5
o16
o3
o54
6
v2
v14
v26
v38
v50
v62
n-90
n2
o2
n10000
o5
o16
o3
o54
6
v3
v15
v27
v39
v51
v63
n-100
n2
o2
n10000
o5
o16
o3
o54
6
v4
v16
v28
v40
v52
v64
n-80
n2
o2
n10000
o5
o16
o3
o54
6
v5
v17
v29
v41
v53
v65
n-140
n2
o2
n10000
o5
o16
o3
o54
6
v6
v18
v30
v42
v54
v66
n-80
n2
o2
n10000
o5
o16
o3
o54
6
v7
v19
v31
v43
v55
v67
n-130
n2
o2
n10000
o5
o16
o3
o54
6
v8
v20
v32
v44
v56
v68
n-130
n2
o2
n10000
o5
o16
o3
o54
6
v9
v21
v33
v45
v57
v69
n-180
n2
o2
n10000
o5
o16
o3
o54
6
v10
v22
v34
v46
v58
v70
n-200
n2
o2
n10000
o5
o16
o3
o54
6
v11
v23
v35
v47
v59
v71
n-140
n2
k173
4
8
12
16
20
24
28
32
36
40
44
48
52
56
60
64
68
72
76
80
84
88
92
96
100
104
108
112
116
120
124
128
132
136
140
144
148
152
156
160
164
168
172
176
180
184
188
192
196
200
204
208
212
216
220
224
228
232
236
240
244
248
252
256
260
264
268
272
276
280
284
288
292
296
300
304
308
312
316
320
324
328
332
336
340
344
348
352
356
360
364
368
372
376
380
384
388
392
396
400
404
408
412
416
420
424
428
432
436
440
444
448
452
456
460
464
468
472
476
480
484
488
492
496
500
504
508
512
516
520
524
528
532
536
540
544
548
552
556
560
564
568
572
576
580
584
588
592
596
600
604
608
612
616
620
624
628
632
636
640
644
648
650
652
654
656
658
660
662
664
666
668
670
J0 6
72 1
75 1
78 1
81 1
84 1
87 1
J1 6
73 1
76 1
79 1
82 1
85 1
88 1
J2 6
74 1
77 1
80 1
83 1
86 1
89 1
J3 6
90 1
93 1
96 1
99 1
102 1
105 1
J4 6
91 1
94 1
97 1
100 1
103 1
106 1
J5 6
92 1
95 1
98 1
101 1
104 1
107 1
J6 6
108 1
111 1
114 1
117 1
120 1
123 1
J7 6
109 1
112 1
115 1
118 1
121 1
124 1
J8 6
110 1
113 1
116 1
119 1
122 1
125 1
J9 6
126 1
129 1
132 1
135 1
138 1
141 1
J10 6
127 1
130 1
133 1
136 1
139 1
142 1
J11 6
128 1
131 1
134 1
137 1
140 1
143 1
J12 6
144 1
147 1
150 1
153 1
156 1
159 1
J13 6
145 1
148 1
151 1
154 1
157 1
160 1
J14 6
146 1
149 1
152 1
155 1
158 1
161 1
J15 9
0 1
3 1
6 1
9 1
72 -1
90 -1
108 -1
126 -1
144 -1
J16 9
1 1
4 1
7 1
10 1
73 -1
91 -1
109 -1
127 -1
145 -1
J17 9
2 1
5 1
8 1
11 1
74 -1
92 -1
110 -1
128 -1
146 -1
J18 9
12 1
15 1
18 1
21 1
75 -1
93 -1
111 -1
129 -1
147 -1
J19 9
13 1
16 1
19 1
22 1
76 -1
94 -1
112 -1
130 -1
148 -1
J20 9
14 1
17 1
20 1
23 1
77 -1
95 -1
113 -1
131 -1
149 -1
J21 9
24 1
27 1
30 1
33 1
78 -1
96 -1
114 -1
132 -1
150 -1
J22 9
25 1
28 1
31 1
34 1
79 -1
97 -1
115 -1
133 -1
151 -1
J23 9
26 1
29 1
32 1
35 1
80 -1
98 -1
116 -1
134 -1
152 -1
J24 9
36 1
39 1
42 1
45 1
81 -1
99 -1
117 -1
135 -1
153 -1
J25 9
37 1
40 1
43 1
46 1
82 -1
100 -1
118 -1
136 -1
154 -1
J26 9
38 1
41 1
44 1
47 1
83 -1
101 -1
119 -1
137 -1
155 -1
J27 9
48 1
51 1
54 1
57 1
84 -1
102 -1
120 -1
138 -1
156 -1
J28 9
49 1
52 1
55 1
58 1
85 -1
103 -1
121 -1
139 -1
157 -1
J29 9
50 1
53 1
56 1
59 1
86 -1
104 -1
122 -1
140 -1
158 -1
J30 9
60 1
63 1
66 1
69 1
87 -1
105 -1
123 -1
141 -1
159 -1
J31 9
61 1
64 1
67 1
70 1
88 -1
106 -1
124 -1
142 -1
160 -1
J32 9
62 1
65 1
68 1
71 1
89 -1
107 -1
125 -1
143 -1
161 -1
J33 7
0 -1
12 -1
24 -1
36 -1
48 -1
60 -1
162 -1
J34 7
1 -1
13 -1
25 -1
37 -1
49 -1
61 -1
163 -1
J35 7
2 -1
14 -1
26 -1
38 -1
50 -1
62 -1
164 -1
J36 7
3 -1
15 -1
27 -1
39 -1
51 -1
63 -1
165 -1
J37 7
4 -1
16 -1
28 -1
40 -1
52 -1
64 -1
166 -1
J38 7
5 -1
17 -1
29 -1
41 -1
53 -1
65 -1
167 -1
J39 7
6 -1
18 -1
30 -1
42 -1
54 -1
66 -1
168 -1
J40 7
7 -1
19 -1
31 -1
43 -1
55 -1
67 -1
169 -1
J41 7
8 -1
20 -1
32 -1
44 -1
56 -1
68 -1
170 -1
J42 7
9 -1
21 -1
33 -1
45 -1
57 -1
69 -1
171 -1
J43 7
10 -1
22 -1
34 -1
46 -1
58 -1
70 -1
172 -1
J44 7
11 -1
23 -1
35 -1
47 -1
59 -1
71 -1
173 -1
J45 4
162 1
165 1
168 1
171 1
J46 4
163 1
166 1
169 1
172 1
J47 4
164 1
167 1
170 1
173 1
J48 15
72 1
73 1
74 1
90 1
91 1
92 1
108 1
109 1
110 1
126 1
127 1
128 1
144 1
145 1
146 1
J49 15
75 1
76 1
77 1
93 1
94 1
95 1
111 1
112 1
113 1
129 1
130 1
131 1
147 1
148 1
149 1
J50 15
78 1
79 1
80 1
96 1
97 1
98 1
114 1
115 1
116 1
132 1
133 1
134 1
150 1
151 1
152 1
J51 15
81 1
82 1
83 1
99 1
100 1
101 1
117 1
118 1
119 1
135 1
136 1
137 1
153 1
154 1
155 1
J52 15
84 1
85 1
86 1
102 1
103 1
104 1
120 1
121 1
122 1
138 1
139 1
140 1
156 1
157 1
158 1
J53 15
87 1
88 1
89 1
105 1
106 1
107 1
123 1
124 1
125 1
141 1
142 1
143 1
159 1
160 1
161 1
J54 18
0 1
1 1
2 1
12 1
13 1
14 1
24 1
25 1
26 1
36 1
37 1
38 1
48 1
49 1
50 1
60 1
61 1
62 1
J55 18
3 1
4 1
5 1
15 1
16 1
17 1
27 1
28 1
29 1
39 1
40 1
41 1
51 1
52 1
53 1
63 1
64 1
65 1
J56 18
6 1
7 1
8 1
18 1
19 1
20 1
30 1
31 1
32 1
42 1
43 1
44 1
54 1
55 1
56 1
66 1
67 1
68 1
J57 18
9 1
10 1
11 1
21 1
22 1
23 1
33 1
34 1
35 1
45 1
46 1
47 1
57 1
58 1
59 1
69 1
70 1
71 1
J58 18
72 1
73 1
74 1
75 1
76 1
77 1
78 1
79 1
80 1
81 1
82 1
83 1
84 1
85 1
86 1
87 1
88 1
89 1
J59 18
90 1
91 1
92 1
93 1
94 1
95 1
96 1
97 1
98 1
99 1
100 1
101 1
102 1
103 1
104 1
105 1
106 1
107 1
J60 18
108 1
109 1
110 1
111 1
112 1
113 1
114 1
115 1
116 1
117 1
118 1
119 1
120 1
121 1
122 1
123 1
124 1
125 1
J61 18
126 1
127 1
128 1
129 1
130 1
131 1
132 1
133 1
134 1
135 1
136 1
137 1
138 1
139 1
140 1
141 1
142 1
143 1
J62 18
144 1
145 1
146 1
147 1
148 1
149 1
150 1
151 1
152 1
153 1
154 1
155 1
156 1
157 1
158 1
159 1
160 1
161 1
J63 12
0 1
1 1
2 1
3 1
4 1
5 1
6 1
7 1
8 1
9 1
10 1
11 1
J64 12
12 1
13 1
14 1
15 1
16 1
17 1
18 1
19 1
20 1
21 1
22 1
23 1
J65 12
24 1
25 1
26 1
27 1
28 1
29 1
30 1
31 1
32 1
33 1
34 1
35 1
J66 12
36 1
37 1
38 1
39 1
40 1
41 1
42 1
43 1
44 1
45 1
46 1
47 1
J67 12
48 1
49 1
50 1
51 1
52 1
53 1
54 1
55 1
56 1
57 1
58 1
59 1
J68 12
60 1
61 1
62 1
63 1
64 1
65 1
66 1
67 1
68 1
69 1
70 1
71 1
G0 162
0 445
1 445
2 445
3 610
4 610
5 610
6 246
7 246
8 246
9 247
10 247
11 247
12 963
13 963
14 963
15 810
16 810
17 810
18 919
19 919
20 919
21 588
22 588
23 588
24 739
25 739
26 739
27 650
28 650
29 650
30 437
31 437
32 437
33 971
34 971
35 971
36 740
37 740
38 740
39 878
40 878
41 878
42 572
43 572
44 572
45 250
46 250
47 250
48 514
49 514
50 514
51 397
52 397
53 397
54 710
55 710
56 710
57 362
58 362
59 362
60 863
61 863
62 863
63 243
64 243
65 243
66 445
67 445
68 445
69 723
70 723
71 723
72 809
73 809
74 809
75 515
76 515
77 515
78 346
79 346
80 346
81 935
82 935
83 935
84 538
85 538
86 538
87 302
88 302
89 302
90 283
91 283
92 283
93 222
94 222
95 222
96 500
97 500
98 500
99 866
100 866
101 866
102 393
103 393
104 393
105 379
106 379
107 379
108 936
109 936
110 936
111 983
112 983
113 983
114 709
115 709
116 709
117 297
118 297
119 297
120 610
121 610
122 610
123 851
124 851
125 851
126 243
127 243
128 243
129 708
130 708
131 708
132 300
133 300
134 300
135 223
136 223
137 223
138 286
139 286
140 286
141 425
142 425
143 425
144 563
145 563
146 563
147 448
148 448
149 448
150 870
151 870
152 870
153 759
154 759
155 759
156 863
157 863
158 863
159 502
160 502
161 502
