datasets/15l3i.sol
 
couenne: Optimal

Options
3
3
1
0
69
0
174
174
0
0
0
0
0
0
0
60.000000000000085
93.9999999999999
83
0
0
0
0
0
0
0
0
0
0
0
8
0
0
0
0
0
0
0
0
70
10.999999999999986
10.000000000000014
0
0
0
0
0
0
0
0
0
0
0
0
70.00000000000007
80
123.99999999999994
41.00000000000002
0
16.00000000000008
0
0
0
0
0
0
18.999999999999975
119.99999999999991
16.000000000000057
0
0
0
100
80
140
8.999999999999995
49.00000000000001
0
0
0
0
0
0
0
0
0
0
70
10.999999999999988
10.000000000000014
0
0
0
0
0
0
0
29.00000000000001
119.99999999999999
0
60.000000000000085
70
0
0
0
0
0
0
0
0
0
39.99999999999999
19.999999999999908
0
0
0
0
0
0
0
0
0
0
0
0
0
40
80
80
0
0
0
0
0
0
0
0
23.9999999999999
0
0
0
0
0
0
30
0
43.99999999999995
19.999999999999996
100
32.00000000000014
0
0
0
83
0
0
8
0
0
0
0
0
0
0
0
0
0
0
109
100
20
99
90
73.99999999999991
0
0
0
1.0000000000000073
9.999999999999918
26.00000000000008
0
0
0
objno 0 3
